lin318

VEHICLE
NUMBER     CAPACITY
  25         200

CUSTOMER
CUST NO.  XCOORD.   YCOORD.    DEMAND   READY TIME  DUE DATE   SERVICE   TIME

  0 63 71 0 0 999999999 0
  1 94 71 0 0 999999999 0
  2 142 370 0 0 999999999 0
  3 173 1276 0 0 999999999 0
  4 205 1213 0 0 999999999 0
  5 213 69 0 0 999999999 0
  6 244 69 0 0 999999999 0
  7 276 630 0 0 999999999 0
  8 283 732 0 0 999999999 0
  9 362 69 0 0 999999999 0
  10 394 69 0 0 999999999 0
  11 449 370 0 0 999999999 0
  12 480 1276 0 0 999999999 0
  13 512 1213 0 0 999999999 0
  14 528 157 0 0 999999999 0
  15 583 630 0 0 999999999 0
  16 591 732 0 0 999999999 0
  17 638 654 0 0 999999999 0
  18 638 496 0 0 999999999 0
  19 638 314 0 0 999999999 0
  20 638 142 0 0 999999999 0
  21 669 142 0 0 999999999 0
  22 677 315 0 0 999999999 0
  23 677 496 0 0 999999999 0
  24 677 654 0 0 999999999 0
  25 709 654 0 0 999999999 0
  26 709 496 0 0 999999999 0
  27 709 315 0 0 999999999 0
  28 701 142 0 0 999999999 0
  29 764 220 0 0 999999999 0
  30 811 189 0 0 999999999 0
  31 843 173 0 0 999999999 0
  32 858 370 0 0 999999999 0
  33 890 1276 0 0 999999999 0
  34 921 1213 0 0 999999999 0
  35 992 630 0 0 999999999 0
  36 1000 732 0 0 999999999 0
  37 1197 1276 0 0 999999999 0
  38 1228 1213 0 0 999999999 0
  39 1276 205 0 0 999999999 0
  40 1299 630 0 0 999999999 0
  41 1307 732 0 0 999999999 0
  42 1362 654 0 0 999999999 0
  43 1362 496 0 0 999999999 0
  44 1362 291 0 0 999999999 0
  45 1425 654 0 0 999999999 0
  46 1425 496 0 0 999999999 0
  47 1425 291 0 0 999999999 0
  48 1417 173 0 0 999999999 0
  49 1488 291 0 0 999999999 0
  50 1488 496 0 0 999999999 0
  51 1488 654 0 0 999999999 0
  52 1551 654 0 0 999999999 0
  53 1551 496 0 0 999999999 0
  54 1551 291 0 0 999999999 0
  55 1614 291 0 0 999999999 0
  56 1614 496 0 0 999999999 0
  57 1614 654 0 0 999999999 0
  58 1732 189 0 0 999999999 0
  59 1811 1276 0 0 999999999 0
  60 1843 1213 0 0 999999999 0
  61 1913 630 0 0 999999999 0
  62 1921 732 0 0 999999999 0
  63 2087 370 0 0 999999999 0
  64 2118 1276 0 0 999999999 0
  65 2150 1213 0 0 999999999 0
  66 2189 205 0 0 999999999 0
  67 2220 189 0 0 999999999 0
  68 2220 630 0 0 999999999 0
  69 2228 732 0 0 999999999 0
  70 2244 142 0 0 999999999 0
  71 2276 315 0 0 999999999 0
  72 2276 496 0 0 999999999 0
  73 2276 654 0 0 999999999 0
  74 2315 654 0 0 999999999 0
  75 2315 496 0 0 999999999 0
  76 2315 315 0 0 999999999 0
  77 2331 142 0 0 999999999 0
  78 2346 315 0 0 999999999 0
  79 2346 496 0 0 999999999 0
  80 2346 654 0 0 999999999 0
  81 2362 142 0 0 999999999 0
  82 2402 157 0 0 999999999 0
  83 2402 220 0 0 999999999 0
  84 2480 142 0 0 999999999 0
  85 2496 370 0 0 999999999 0
  86 2528 1276 0 0 999999999 0
  87 2559 1213 0 0 999999999 0
  88 2630 630 0 0 999999999 0
  89 2638 732 0 0 999999999 0
  90 2756 69 0 0 999999999 0
  91 2787 69 0 0 999999999 0
  92 2803 370 0 0 999999999 0
  93 2835 1276 0 0 999999999 0
  94 2866 1213 0 0 999999999 0
  95 2906 69 0 0 999999999 0
  96 2937 69 0 0 999999999 0
  97 2937 630 0 0 999999999 0
  98 2945 732 0 0 999999999 0
  99 3016 1276 0 0 999999999 0
  100 3055 69 0 0 999999999 0
  101 3087 69 0 0 999999999 0
  102 606 220 0 0 999999999 0
  103 1165 370 0 0 999999999 0
  104 1780 370 0 0 999999999 0
  105 63 1402 0 0 999999999 0
  106 94 1402 0 0 999999999 0
  107 142 1701 0 0 999999999 0
  108 173 2607 0 0 999999999 0
  109 205 2544 0 0 999999999 0
  110 213 1400 0 0 999999999 0
  111 244 1400 0 0 999999999 0
  112 276 1961 0 0 999999999 0
  113 283 2063 0 0 999999999 0
  114 362 1400 0 0 999999999 0
  115 394 1400 0 0 999999999 0
  116 449 1701 0 0 999999999 0
  117 480 2607 0 0 999999999 0
  118 512 2544 0 0 999999999 0
  119 528 1488 0 0 999999999 0
  120 583 1961 0 0 999999999 0
  121 591 2063 0 0 999999999 0
  122 638 1985 0 0 999999999 0
  123 638 1827 0 0 999999999 0
  124 638 1645 0 0 999999999 0
  125 638 1473 0 0 999999999 0
  126 669 1473 0 0 999999999 0
  127 677 1646 0 0 999999999 0
  128 677 1827 0 0 999999999 0
  129 677 1985 0 0 999999999 0
  130 709 1985 0 0 999999999 0
  131 709 1827 0 0 999999999 0
  132 709 1646 0 0 999999999 0
  133 701 1473 0 0 999999999 0
  134 764 1551 0 0 999999999 0
  135 811 1520 0 0 999999999 0
  136 843 1504 0 0 999999999 0
  137 858 1701 0 0 999999999 0
  138 890 2607 0 0 999999999 0
  139 921 2544 0 0 999999999 0
  140 992 1961 0 0 999999999 0
  141 1000 2063 0 0 999999999 0
  142 1197 2607 0 0 999999999 0
  143 1228 2544 0 0 999999999 0
  144 1276 1536 0 0 999999999 0
  145 1299 1961 0 0 999999999 0
  146 1307 2063 0 0 999999999 0
  147 1362 1985 0 0 999999999 0
  148 1362 1827 0 0 999999999 0
  149 1362 1622 0 0 999999999 0
  150 1425 1985 0 0 999999999 0
  151 1425 1827 0 0 999999999 0
  152 1425 1622 0 0 999999999 0
  153 1417 1504 0 0 999999999 0
  154 1488 1622 0 0 999999999 0
  155 1488 1827 0 0 999999999 0
  156 1488 1985 0 0 999999999 0
  157 1551 1985 0 0 999999999 0
  158 1551 1827 0 0 999999999 0
  159 1551 1622 0 0 999999999 0
  160 1614 1622 0 0 999999999 0
  161 1614 1827 0 0 999999999 0
  162 1614 1985 0 0 999999999 0
  163 1732 1520 0 0 999999999 0
  164 1811 2607 0 0 999999999 0
  165 1843 2544 0 0 999999999 0
  166 1913 1961 0 0 999999999 0
  167 1921 2063 0 0 999999999 0
  168 2087 1701 0 0 999999999 0
  169 2118 2607 0 0 999999999 0
  170 2150 2544 0 0 999999999 0
  171 2189 1536 0 0 999999999 0
  172 2220 1520 0 0 999999999 0
  173 2220 1961 0 0 999999999 0
  174 2228 2063 0 0 999999999 0
  175 2244 1473 0 0 999999999 0
  176 2276 1646 0 0 999999999 0
  177 2276 1827 0 0 999999999 0
  178 2276 1985 0 0 999999999 0
  179 2315 1985 0 0 999999999 0
  180 2315 1827 0 0 999999999 0
  181 2315 1646 0 0 999999999 0
  182 2331 1473 0 0 999999999 0
  183 2346 1646 0 0 999999999 0
  184 2346 1827 0 0 999999999 0
  185 2346 1985 0 0 999999999 0
  186 2362 1473 0 0 999999999 0
  187 2402 1488 0 0 999999999 0
  188 2402 1551 0 0 999999999 0
  189 2480 1473 0 0 999999999 0
  190 2496 1701 0 0 999999999 0
  191 2528 2607 0 0 999999999 0
  192 2559 2544 0 0 999999999 0
  193 2630 1961 0 0 999999999 0
  194 2638 2063 0 0 999999999 0
  195 2756 1400 0 0 999999999 0
  196 2787 1400 0 0 999999999 0
  197 2803 1701 0 0 999999999 0
  198 2835 2607 0 0 999999999 0
  199 2866 2544 0 0 999999999 0
  200 2906 1400 0 0 999999999 0
  201 2937 1400 0 0 999999999 0
  202 2937 1961 0 0 999999999 0
  203 2945 2063 0 0 999999999 0
  204 3016 2607 0 0 999999999 0
  205 3055 1400 0 0 999999999 0
  206 3087 1400 0 0 999999999 0
  207 606 1551 0 0 999999999 0
  208 1165 1701 0 0 999999999 0
  209 1780 1701 0 0 999999999 0
  210 63 2733 0 0 999999999 0
  211 94 2733 0 0 999999999 0
  212 142 3032 0 0 999999999 0
  213 173 3938 0 0 999999999 0
  214 205 3875 0 0 999999999 0
  215 213 2731 0 0 999999999 0
  216 244 2731 0 0 999999999 0
  217 276 3292 0 0 999999999 0
  218 283 3394 0 0 999999999 0
  219 362 2731 0 0 999999999 0
  220 394 2731 0 0 999999999 0
  221 449 3032 0 0 999999999 0
  222 480 3938 0 0 999999999 0
  223 512 3875 0 0 999999999 0
  224 528 2819 0 0 999999999 0
  225 583 3292 0 0 999999999 0
  226 591 3394 0 0 999999999 0
  227 638 3316 0 0 999999999 0
  228 638 3158 0 0 999999999 0
  229 638 2976 0 0 999999999 0
  230 638 2804 0 0 999999999 0
  231 669 2804 0 0 999999999 0
  232 677 2977 0 0 999999999 0
  233 677 3158 0 0 999999999 0
  234 677 3316 0 0 999999999 0
  235 709 3316 0 0 999999999 0
  236 709 3158 0 0 999999999 0
  237 709 2977 0 0 999999999 0
  238 701 2804 0 0 999999999 0
  239 764 2882 0 0 999999999 0
  240 811 2851 0 0 999999999 0
  241 843 2835 0 0 999999999 0
  242 858 3032 0 0 999999999 0
  243 890 3938 0 0 999999999 0
  244 921 3875 0 0 999999999 0
  245 992 3292 0 0 999999999 0
  246 1000 3394 0 0 999999999 0
  247 1197 3938 0 0 999999999 0
  248 1228 3875 0 0 999999999 0
  249 1276 2867 0 0 999999999 0
  250 1299 3292 0 0 999999999 0
  251 1307 3394 0 0 999999999 0
  252 1362 3316 0 0 999999999 0
  253 1362 3158 0 0 999999999 0
  254 1362 2953 0 0 999999999 0
  255 1425 3316 0 0 999999999 0
  256 1425 3158 0 0 999999999 0
  257 1425 2953 0 0 999999999 0
  258 1417 2835 0 0 999999999 0
  259 1488 2953 0 0 999999999 0
  260 1488 3158 0 0 999999999 0
  261 1488 3316 0 0 999999999 0
  262 1551 3316 0 0 999999999 0
  263 1551 3158 0 0 999999999 0
  264 1551 2953 0 0 999999999 0
  265 1614 2953 0 0 999999999 0
  266 1614 3158 0 0 999999999 0
  267 1614 3316 0 0 999999999 0
  268 1732 2851 0 0 999999999 0
  269 1811 3938 0 0 999999999 0
  270 1843 3875 0 0 999999999 0
  271 1913 3292 0 0 999999999 0
  272 1921 3394 0 0 999999999 0
  273 2087 3032 0 0 999999999 0
  274 2118 3938 0 0 999999999 0
  275 2150 3875 0 0 999999999 0
  276 2189 2867 0 0 999999999 0
  277 2220 2851 0 0 999999999 0
  278 2220 3292 0 0 999999999 0
  279 2228 3394 0 0 999999999 0
  280 2244 2804 0 0 999999999 0
  281 2276 2977 0 0 999999999 0
  282 2276 3158 0 0 999999999 0
  283 2276 3316 0 0 999999999 0
  284 2315 3316 0 0 999999999 0
  285 2315 3158 0 0 999999999 0
  286 2315 2977 0 0 999999999 0
  287 2331 2804 0 0 999999999 0
  288 2346 2977 0 0 999999999 0
  289 2346 3158 0 0 999999999 0
  290 2346 3316 0 0 999999999 0
  291 2362 2804 0 0 999999999 0
  292 2402 2819 0 0 999999999 0
  293 2402 2882 0 0 999999999 0
  294 2480 2804 0 0 999999999 0
  295 2496 3032 0 0 999999999 0
  296 2528 3938 0 0 999999999 0
  297 2559 3875 0 0 999999999 0
  298 2630 3292 0 0 999999999 0
  299 2638 3394 0 0 999999999 0
  300 2756 2731 0 0 999999999 0
  301 2787 2731 0 0 999999999 0
  302 2803 3032 0 0 999999999 0
  303 2835 3938 0 0 999999999 0
  304 2866 3875 0 0 999999999 0
  305 2906 2731 0 0 999999999 0
  306 2937 2731 0 0 999999999 0
  307 2937 3292 0 0 999999999 0
  308 2945 3394 0 0 999999999 0
  309 3016 3938 0 0 999999999 0
  310 3055 2731 0 0 999999999 0
  311 3087 2731 0 0 999999999 0
  312 606 2882 0 0 999999999 0
  313 1165 3032 0 0 999999999 0
  314 1780 3032 0 0 999999999 0
  315 1417 -79 0 0 999999999 0
  316 1496 -79 0 0 999999999 0
  317 1693 4055 0 0 999999999 0
